#######################
Slurm job id: 17497813_203
Running on machine: p46
Running cmd: /nfs/shared/static-builds/gurobi1202 SOFTMEMLIMIT=125 MIPFocus=2 Presolve=1 TimeLimit=500 seed=12 /nfs/models/miplib2010/k16x240.mps.bz2
#######################
Set parameter TimeLimit to value 500
Set parameter SoftMemLimit to value 125
Set parameter MIPFocus to value 2
Set parameter LogFile to value 1202-MIPFocus2-Presolve1-TimeLimit500-k16x240-2.log
Set parameter Presolve to value 1
Set parameter Seed to value 12
Using license file /opt/gurobi/gurobi.lic

Gurobi Optimizer version 12.0.2 build v12.0.2rc0 (linux64 - "Ubuntu 22.04.4 LTS")
Copyright (c) 2025, Gurobi Optimization, LLC

Read MPS format model from file /nfs/models/miplib2010/k16x240.mps.bz2
Reading time = 0.00 seconds
k16x240: 256 rows, 480 columns, 960 nonzeros

Using Gurobi shared library /nfs/shared/static-builds/gurobi1202

CPU model: Intel(R) Xeon(R) E-2388G CPU @ 3.20GHz, instruction set [SSE2|AVX|AVX2|AVX512]
Thread count: 8 physical cores, 16 logical processors, using up to 16 threads

Non-default parameters:
TimeLimit  500
SoftMemLimit  125
MIPFocus  2
Presolve  1
Seed  12

Optimize a model with 256 rows, 480 columns and 960 nonzeros
Model fingerprint: 0x4e80885f
Variable types: 240 continuous, 240 integer (240 binary)
Coefficient statistics:
  Matrix range     [1e+00, 1e+03]
  Objective range  [1e+00, 1e+03]
  Bounds range     [1e+00, 1e+03]
  RHS range        [4e+00, 4e+02]
Found heuristic solution: objective 19617.000000
Presolve time: 0.00s
Presolved: 256 rows, 480 columns, 960 nonzeros
Variable types: 240 continuous, 240 integer (240 binary)

Root relaxation: objective 2.769838e+03, 51 iterations, 0.00 seconds (0.00 work units)

    Nodes    |    Current Node    |     Objective Bounds      |     Work
 Expl Unexpl |  Obj  Depth IntInf | Incumbent    BestBd   Gap | It/Node Time

     0     0 2769.83800    0   14 19617.0000 2769.83800  85.9%     -    0s
H    0     0                    11359.000000 2769.83800  75.6%     -    0s
H    0     0                    11195.000000 2769.83800  75.3%     -    0s
H    0     0                    11088.000000 2769.83800  75.0%     -    0s
H    0     0                    11074.000000 2769.83800  75.0%     -    0s
     0     0 8116.87580    0   26 11074.0000 8116.87580  26.7%     -    0s
H    0     0                    10916.000000 8161.01413  25.2%     -    0s
H    0     0                    10806.000000 8588.30479  20.5%     -    0s
     0     0 8588.30479    0   25 10806.0000 8588.30479  20.5%     -    0s
     0     0 8613.92228    0   22 10806.0000 8613.92228  20.3%     -    0s
H    0     0                    10778.000000 8613.92228  20.1%     -    0s
H    0     0                    10750.000000 8613.92228  19.9%     -    0s
     0     0 8718.84268    0   23 10750.0000 8718.84268  18.9%     -    0s
H    0     0                    10748.000000 8722.38805  18.8%     -    0s
     0     0 8841.21632    0   38 10748.0000 8841.21632  17.7%     -    0s
     0     0 8841.47582    0   38 10748.0000 8841.47582  17.7%     -    0s
     0     0 8967.43767    0   46 10748.0000 8967.43767  16.6%     -    0s
     0     0 8991.14108    0   45 10748.0000 8991.14108  16.3%     -    0s
     0     0 9000.32857    0   43 10748.0000 9000.32857  16.3%     -    0s
     0     0 9075.37664    0   33 10748.0000 9075.37664  15.6%     -    0s
     0     0 9089.73710    0   34 10748.0000 9089.73710  15.4%     -    0s
     0     0 9114.56990    0   29 10748.0000 9114.56990  15.2%     -    0s
     0     0 9120.88108    0   32 10748.0000 9120.88108  15.1%     -    0s
     0     0 9126.35382    0   31 10748.0000 9126.35382  15.1%     -    0s
     0     0 9127.21759    0   31 10748.0000 9127.21759  15.1%     -    0s
     0     2 9127.68154    0   31 10748.0000 9127.68154  15.1%     -    0s
H   47    50                    10746.000000 9218.55731  14.2%  51.9    0s
H  255   297                    10674.000000 9218.55731  13.6%  31.8    0s
 25674 10078 10624.6890   29    8 10674.0000 9984.05879  6.46%  28.9    5s
 72017 16688 10442.5028   28   22 10674.0000 10215.6381  4.29%  30.0   10s
 115986 10217     cutoff   31      10674.0000 10407.4284  2.50%  29.8   15s

Cutting planes:
  Lift-and-project: 9
  Cover: 87
  Implied bound: 35
  Dual implied bound: 7
  MIR: 193
  Mixing: 1
  Flow cover: 295
  Flow path: 28
  Inf proof: 3
  Zero half: 3
  Network: 35
  Relax-and-lift: 1

Explored 135865 nodes (3821540 simplex iterations) in 16.61 seconds (22.11 work units)
Thread count was 16 (of 16 available processors)

Solution count 10: 10674 10746 10748 ... 11195

Optimal solution found (tolerance 1.00e-04)
Best objective 1.067400000000e+04, best bound 1.067400000000e+04, gap 0.0000%
